c *********************************
c * Circuit generated by BenCGen
c *
c * CarryLookaheadBlock_64_64_64_InOutT
c *
c * Ports with 1 gate(s): 2
c * Ports with 2 gate(s): 273
c * Ports with 3 gate(s): 64
c * Ports with 4 gate(s): 48
c * Ports with 5 gate(s): 32
c * Total gates: 419
c *********************************
p cnf 547 1639
1 195 0
-1 -195 0
1 -194 0
195 -194 0
-1 -195 194 0
1 65 -196 0
-1 65 196 0
1 -65 196 0
-1 -65 -196 0
1 -260 0
65 -260 0
-1 -65 260 0
2 66 -197 0
-2 66 197 0
2 -66 197 0
-2 -66 -197 0
2 -261 0
66 -261 0
-2 -66 261 0
3 67 -198 0
-3 67 198 0
3 -67 198 0
-3 -67 -198 0
3 -262 0
67 -262 0
-3 -67 262 0
4 68 -199 0
-4 68 199 0
4 -68 199 0
-4 -68 -199 0
4 -263 0
68 -263 0
-4 -68 263 0
5 69 -200 0
-5 69 200 0
5 -69 200 0
-5 -69 -200 0
5 -264 0
69 -264 0
-5 -69 264 0
6 70 -201 0
-6 70 201 0
6 -70 201 0
-6 -70 -201 0
6 -265 0
70 -265 0
-6 -70 265 0
7 71 -202 0
-7 71 202 0
7 -71 202 0
-7 -71 -202 0
7 -266 0
71 -266 0
-7 -71 266 0
8 72 -203 0
-8 72 203 0
8 -72 203 0
-8 -72 -203 0
8 -267 0
72 -267 0
-8 -72 267 0
9 73 -204 0
-9 73 204 0
9 -73 204 0
-9 -73 -204 0
9 -268 0
73 -268 0
-9 -73 268 0
10 74 -205 0
-10 74 205 0
10 -74 205 0
-10 -74 -205 0
10 -269 0
74 -269 0
-10 -74 269 0
11 75 -206 0
-11 75 206 0
11 -75 206 0
-11 -75 -206 0
11 -270 0
75 -270 0
-11 -75 270 0
12 76 -207 0
-12 76 207 0
12 -76 207 0
-12 -76 -207 0
12 -271 0
76 -271 0
-12 -76 271 0
13 77 -208 0
-13 77 208 0
13 -77 208 0
-13 -77 -208 0
13 -272 0
77 -272 0
-13 -77 272 0
14 78 -209 0
-14 78 209 0
14 -78 209 0
-14 -78 -209 0
14 -273 0
78 -273 0
-14 -78 273 0
15 79 -210 0
-15 79 210 0
15 -79 210 0
-15 -79 -210 0
15 -274 0
79 -274 0
-15 -79 274 0
16 80 -211 0
-16 80 211 0
16 -80 211 0
-16 -80 -211 0
16 -275 0
80 -275 0
-16 -80 275 0
17 81 -212 0
-17 81 212 0
17 -81 212 0
-17 -81 -212 0
17 -276 0
81 -276 0
-17 -81 276 0
18 82 -213 0
-18 82 213 0
18 -82 213 0
-18 -82 -213 0
18 -277 0
82 -277 0
-18 -82 277 0
19 83 -214 0
-19 83 214 0
19 -83 214 0
-19 -83 -214 0
19 -278 0
83 -278 0
-19 -83 278 0
20 84 -215 0
-20 84 215 0
20 -84 215 0
-20 -84 -215 0
20 -279 0
84 -279 0
-20 -84 279 0
21 85 -216 0
-21 85 216 0
21 -85 216 0
-21 -85 -216 0
21 -280 0
85 -280 0
-21 -85 280 0
22 86 -217 0
-22 86 217 0
22 -86 217 0
-22 -86 -217 0
22 -281 0
86 -281 0
-22 -86 281 0
23 87 -218 0
-23 87 218 0
23 -87 218 0
-23 -87 -218 0
23 -282 0
87 -282 0
-23 -87 282 0
24 88 -219 0
-24 88 219 0
24 -88 219 0
-24 -88 -219 0
24 -283 0
88 -283 0
-24 -88 283 0
25 89 -220 0
-25 89 220 0
25 -89 220 0
-25 -89 -220 0
25 -284 0
89 -284 0
-25 -89 284 0
26 90 -221 0
-26 90 221 0
26 -90 221 0
-26 -90 -221 0
26 -285 0
90 -285 0
-26 -90 285 0
27 91 -222 0
-27 91 222 0
27 -91 222 0
-27 -91 -222 0
27 -286 0
91 -286 0
-27 -91 286 0
28 92 -223 0
-28 92 223 0
28 -92 223 0
-28 -92 -223 0
28 -287 0
92 -287 0
-28 -92 287 0
29 93 -224 0
-29 93 224 0
29 -93 224 0
-29 -93 -224 0
29 -288 0
93 -288 0
-29 -93 288 0
30 94 -225 0
-30 94 225 0
30 -94 225 0
-30 -94 -225 0
30 -289 0
94 -289 0
-30 -94 289 0
31 95 -226 0
-31 95 226 0
31 -95 226 0
-31 -95 -226 0
31 -290 0
95 -290 0
-31 -95 290 0
32 96 -227 0
-32 96 227 0
32 -96 227 0
-32 -96 -227 0
32 -291 0
96 -291 0
-32 -96 291 0
33 97 -228 0
-33 97 228 0
33 -97 228 0
-33 -97 -228 0
33 -292 0
97 -292 0
-33 -97 292 0
34 98 -229 0
-34 98 229 0
34 -98 229 0
-34 -98 -229 0
34 -293 0
98 -293 0
-34 -98 293 0
35 99 -230 0
-35 99 230 0
35 -99 230 0
-35 -99 -230 0
35 -294 0
99 -294 0
-35 -99 294 0
36 100 -231 0
-36 100 231 0
36 -100 231 0
-36 -100 -231 0
36 -295 0
100 -295 0
-36 -100 295 0
37 101 -232 0
-37 101 232 0
37 -101 232 0
-37 -101 -232 0
37 -296 0
101 -296 0
-37 -101 296 0
38 102 -233 0
-38 102 233 0
38 -102 233 0
-38 -102 -233 0
38 -297 0
102 -297 0
-38 -102 297 0
39 103 -234 0
-39 103 234 0
39 -103 234 0
-39 -103 -234 0
39 -298 0
103 -298 0
-39 -103 298 0
40 104 -235 0
-40 104 235 0
40 -104 235 0
-40 -104 -235 0
40 -299 0
104 -299 0
-40 -104 299 0
41 105 -236 0
-41 105 236 0
41 -105 236 0
-41 -105 -236 0
41 -300 0
105 -300 0
-41 -105 300 0
42 106 -237 0
-42 106 237 0
42 -106 237 0
-42 -106 -237 0
42 -301 0
106 -301 0
-42 -106 301 0
43 107 -238 0
-43 107 238 0
43 -107 238 0
-43 -107 -238 0
43 -302 0
107 -302 0
-43 -107 302 0
44 108 -239 0
-44 108 239 0
44 -108 239 0
-44 -108 -239 0
44 -303 0
108 -303 0
-44 -108 303 0
45 109 -240 0
-45 109 240 0
45 -109 240 0
-45 -109 -240 0
45 -304 0
109 -304 0
-45 -109 304 0
46 110 -241 0
-46 110 241 0
46 -110 241 0
-46 -110 -241 0
46 -305 0
110 -305 0
-46 -110 305 0
47 111 -242 0
-47 111 242 0
47 -111 242 0
-47 -111 -242 0
47 -306 0
111 -306 0
-47 -111 306 0
48 112 -243 0
-48 112 243 0
48 -112 243 0
-48 -112 -243 0
48 -307 0
112 -307 0
-48 -112 307 0
49 113 -244 0
-49 113 244 0
49 -113 244 0
-49 -113 -244 0
49 -308 0
113 -308 0
-49 -113 308 0
50 114 -245 0
-50 114 245 0
50 -114 245 0
-50 -114 -245 0
50 -309 0
114 -309 0
-50 -114 309 0
51 115 -246 0
-51 115 246 0
51 -115 246 0
-51 -115 -246 0
51 -310 0
115 -310 0
-51 -115 310 0
52 116 -247 0
-52 116 247 0
52 -116 247 0
-52 -116 -247 0
52 -311 0
116 -311 0
-52 -116 311 0
53 117 -248 0
-53 117 248 0
53 -117 248 0
-53 -117 -248 0
53 -312 0
117 -312 0
-53 -117 312 0
54 118 -249 0
-54 118 249 0
54 -118 249 0
-54 -118 -249 0
54 -313 0
118 -313 0
-54 -118 313 0
55 119 -250 0
-55 119 250 0
55 -119 250 0
-55 -119 -250 0
55 -314 0
119 -314 0
-55 -119 314 0
56 120 -251 0
-56 120 251 0
56 -120 251 0
-56 -120 -251 0
56 -315 0
120 -315 0
-56 -120 315 0
57 121 -252 0
-57 121 252 0
57 -121 252 0
-57 -121 -252 0
57 -316 0
121 -316 0
-57 -121 316 0
58 122 -253 0
-58 122 253 0
58 -122 253 0
-58 -122 -253 0
58 -317 0
122 -317 0
-58 -122 317 0
59 123 -254 0
-59 123 254 0
59 -123 254 0
-59 -123 -254 0
59 -318 0
123 -318 0
-59 -123 318 0
60 124 -255 0
-60 124 255 0
60 -124 255 0
-60 -124 -255 0
60 -319 0
124 -319 0
-60 -124 319 0
61 125 -256 0
-61 125 256 0
61 -125 256 0
-61 -125 -256 0
61 -320 0
125 -320 0
-61 -125 320 0
62 126 -257 0
-62 126 257 0
62 -126 257 0
-62 -126 -257 0
62 -321 0
126 -321 0
-62 -126 321 0
63 127 -258 0
-63 127 258 0
63 -127 258 0
-63 -127 -258 0
63 -322 0
127 -322 0
-63 -127 322 0
64 128 -259 0
-64 128 259 0
64 -128 259 0
-64 -128 -259 0
64 -323 0
128 -323 0
-64 -128 323 0
194 -388 0
196 -388 0
-194 -196 388 0
194 -389 0
196 -389 0
197 -389 0
-194 -196 -197 389 0
260 -390 0
197 -390 0
-260 -197 390 0
194 -391 0
196 -391 0
197 -391 0
198 -391 0
-194 -196 -197 -198 391 0
260 -392 0
197 -392 0
198 -392 0
-260 -197 -198 392 0
261 -393 0
198 -393 0
-261 -198 393 0
194 -394 0
196 -394 0
197 -394 0
198 -394 0
199 -394 0
-194 -196 -197 -198 -199 394 0
260 -395 0
197 -395 0
198 -395 0
199 -395 0
-260 -197 -198 -199 395 0
261 -396 0
198 -396 0
199 -396 0
-261 -198 -199 396 0
262 -397 0
199 -397 0
-262 -199 397 0
-260 324 0
-388 324 0
260 388 -324 0
-261 325 0
-389 325 0
-390 325 0
261 389 390 -325 0
-262 326 0
-391 326 0
-392 326 0
-393 326 0
262 391 392 393 -326 0
-263 327 0
-394 327 0
-395 327 0
-396 327 0
-397 327 0
263 394 395 396 397 -327 0
327 -398 0
200 -398 0
-327 -200 398 0
327 -399 0
200 -399 0
201 -399 0
-327 -200 -201 399 0
264 -400 0
201 -400 0
-264 -201 400 0
327 -401 0
200 -401 0
201 -401 0
202 -401 0
-327 -200 -201 -202 401 0
264 -402 0
201 -402 0
202 -402 0
-264 -201 -202 402 0
265 -403 0
202 -403 0
-265 -202 403 0
327 -404 0
200 -404 0
201 -404 0
202 -404 0
203 -404 0
-327 -200 -201 -202 -203 404 0
264 -405 0
201 -405 0
202 -405 0
203 -405 0
-264 -201 -202 -203 405 0
265 -406 0
202 -406 0
203 -406 0
-265 -202 -203 406 0
266 -407 0
203 -407 0
-266 -203 407 0
-264 328 0
-398 328 0
264 398 -328 0
-265 329 0
-399 329 0
-400 329 0
265 399 400 -329 0
-266 330 0
-401 330 0
-402 330 0
-403 330 0
266 401 402 403 -330 0
-267 331 0
-404 331 0
-405 331 0
-406 331 0
-407 331 0
267 404 405 406 407 -331 0
331 -408 0
204 -408 0
-331 -204 408 0
331 -409 0
204 -409 0
205 -409 0
-331 -204 -205 409 0
268 -410 0
205 -410 0
-268 -205 410 0
331 -411 0
204 -411 0
205 -411 0
206 -411 0
-331 -204 -205 -206 411 0
268 -412 0
205 -412 0
206 -412 0
-268 -205 -206 412 0
269 -413 0
206 -413 0
-269 -206 413 0
331 -414 0
204 -414 0
205 -414 0
206 -414 0
207 -414 0
-331 -204 -205 -206 -207 414 0
268 -415 0
205 -415 0
206 -415 0
207 -415 0
-268 -205 -206 -207 415 0
269 -416 0
206 -416 0
207 -416 0
-269 -206 -207 416 0
270 -417 0
207 -417 0
-270 -207 417 0
-268 332 0
-408 332 0
268 408 -332 0
-269 333 0
-409 333 0
-410 333 0
269 409 410 -333 0
-270 334 0
-411 334 0
-412 334 0
-413 334 0
270 411 412 413 -334 0
-271 335 0
-414 335 0
-415 335 0
-416 335 0
-417 335 0
271 414 415 416 417 -335 0
335 -418 0
208 -418 0
-335 -208 418 0
335 -419 0
208 -419 0
209 -419 0
-335 -208 -209 419 0
272 -420 0
209 -420 0
-272 -209 420 0
335 -421 0
208 -421 0
209 -421 0
210 -421 0
-335 -208 -209 -210 421 0
272 -422 0
209 -422 0
210 -422 0
-272 -209 -210 422 0
273 -423 0
210 -423 0
-273 -210 423 0
335 -424 0
208 -424 0
209 -424 0
210 -424 0
211 -424 0
-335 -208 -209 -210 -211 424 0
272 -425 0
209 -425 0
210 -425 0
211 -425 0
-272 -209 -210 -211 425 0
273 -426 0
210 -426 0
211 -426 0
-273 -210 -211 426 0
274 -427 0
211 -427 0
-274 -211 427 0
-272 336 0
-418 336 0
272 418 -336 0
-273 337 0
-419 337 0
-420 337 0
273 419 420 -337 0
-274 338 0
-421 338 0
-422 338 0
-423 338 0
274 421 422 423 -338 0
-275 339 0
-424 339 0
-425 339 0
-426 339 0
-427 339 0
275 424 425 426 427 -339 0
339 -428 0
212 -428 0
-339 -212 428 0
339 -429 0
212 -429 0
213 -429 0
-339 -212 -213 429 0
276 -430 0
213 -430 0
-276 -213 430 0
339 -431 0
212 -431 0
213 -431 0
214 -431 0
-339 -212 -213 -214 431 0
276 -432 0
213 -432 0
214 -432 0
-276 -213 -214 432 0
277 -433 0
214 -433 0
-277 -214 433 0
339 -434 0
212 -434 0
213 -434 0
214 -434 0
215 -434 0
-339 -212 -213 -214 -215 434 0
276 -435 0
213 -435 0
214 -435 0
215 -435 0
-276 -213 -214 -215 435 0
277 -436 0
214 -436 0
215 -436 0
-277 -214 -215 436 0
278 -437 0
215 -437 0
-278 -215 437 0
-276 340 0
-428 340 0
276 428 -340 0
-277 341 0
-429 341 0
-430 341 0
277 429 430 -341 0
-278 342 0
-431 342 0
-432 342 0
-433 342 0
278 431 432 433 -342 0
-279 343 0
-434 343 0
-435 343 0
-436 343 0
-437 343 0
279 434 435 436 437 -343 0
343 -438 0
216 -438 0
-343 -216 438 0
343 -439 0
216 -439 0
217 -439 0
-343 -216 -217 439 0
280 -440 0
217 -440 0
-280 -217 440 0
343 -441 0
216 -441 0
217 -441 0
218 -441 0
-343 -216 -217 -218 441 0
280 -442 0
217 -442 0
218 -442 0
-280 -217 -218 442 0
281 -443 0
218 -443 0
-281 -218 443 0
343 -444 0
216 -444 0
217 -444 0
218 -444 0
219 -444 0
-343 -216 -217 -218 -219 444 0
280 -445 0
217 -445 0
218 -445 0
219 -445 0
-280 -217 -218 -219 445 0
281 -446 0
218 -446 0
219 -446 0
-281 -218 -219 446 0
282 -447 0
219 -447 0
-282 -219 447 0
-280 344 0
-438 344 0
280 438 -344 0
-281 345 0
-439 345 0
-440 345 0
281 439 440 -345 0
-282 346 0
-441 346 0
-442 346 0
-443 346 0
282 441 442 443 -346 0
-283 347 0
-444 347 0
-445 347 0
-446 347 0
-447 347 0
283 444 445 446 447 -347 0
347 -448 0
220 -448 0
-347 -220 448 0
347 -449 0
220 -449 0
221 -449 0
-347 -220 -221 449 0
284 -450 0
221 -450 0
-284 -221 450 0
347 -451 0
220 -451 0
221 -451 0
222 -451 0
-347 -220 -221 -222 451 0
284 -452 0
221 -452 0
222 -452 0
-284 -221 -222 452 0
285 -453 0
222 -453 0
-285 -222 453 0
347 -454 0
220 -454 0
221 -454 0
222 -454 0
223 -454 0
-347 -220 -221 -222 -223 454 0
284 -455 0
221 -455 0
222 -455 0
223 -455 0
-284 -221 -222 -223 455 0
285 -456 0
222 -456 0
223 -456 0
-285 -222 -223 456 0
286 -457 0
223 -457 0
-286 -223 457 0
-284 348 0
-448 348 0
284 448 -348 0
-285 349 0
-449 349 0
-450 349 0
285 449 450 -349 0
-286 350 0
-451 350 0
-452 350 0
-453 350 0
286 451 452 453 -350 0
-287 351 0
-454 351 0
-455 351 0
-456 351 0
-457 351 0
287 454 455 456 457 -351 0
351 -458 0
224 -458 0
-351 -224 458 0
351 -459 0
224 -459 0
225 -459 0
-351 -224 -225 459 0
288 -460 0
225 -460 0
-288 -225 460 0
351 -461 0
224 -461 0
225 -461 0
226 -461 0
-351 -224 -225 -226 461 0
288 -462 0
225 -462 0
226 -462 0
-288 -225 -226 462 0
289 -463 0
226 -463 0
-289 -226 463 0
351 -464 0
224 -464 0
225 -464 0
226 -464 0
227 -464 0
-351 -224 -225 -226 -227 464 0
288 -465 0
225 -465 0
226 -465 0
227 -465 0
-288 -225 -226 -227 465 0
289 -466 0
226 -466 0
227 -466 0
-289 -226 -227 466 0
290 -467 0
227 -467 0
-290 -227 467 0
-288 352 0
-458 352 0
288 458 -352 0
-289 353 0
-459 353 0
-460 353 0
289 459 460 -353 0
-290 354 0
-461 354 0
-462 354 0
-463 354 0
290 461 462 463 -354 0
-291 355 0
-464 355 0
-465 355 0
-466 355 0
-467 355 0
291 464 465 466 467 -355 0
355 -468 0
228 -468 0
-355 -228 468 0
355 -469 0
228 -469 0
229 -469 0
-355 -228 -229 469 0
292 -470 0
229 -470 0
-292 -229 470 0
355 -471 0
228 -471 0
229 -471 0
230 -471 0
-355 -228 -229 -230 471 0
292 -472 0
229 -472 0
230 -472 0
-292 -229 -230 472 0
293 -473 0
230 -473 0
-293 -230 473 0
355 -474 0
228 -474 0
229 -474 0
230 -474 0
231 -474 0
-355 -228 -229 -230 -231 474 0
292 -475 0
229 -475 0
230 -475 0
231 -475 0
-292 -229 -230 -231 475 0
293 -476 0
230 -476 0
231 -476 0
-293 -230 -231 476 0
294 -477 0
231 -477 0
-294 -231 477 0
-292 356 0
-468 356 0
292 468 -356 0
-293 357 0
-469 357 0
-470 357 0
293 469 470 -357 0
-294 358 0
-471 358 0
-472 358 0
-473 358 0
294 471 472 473 -358 0
-295 359 0
-474 359 0
-475 359 0
-476 359 0
-477 359 0
295 474 475 476 477 -359 0
359 -478 0
232 -478 0
-359 -232 478 0
359 -479 0
232 -479 0
233 -479 0
-359 -232 -233 479 0
296 -480 0
233 -480 0
-296 -233 480 0
359 -481 0
232 -481 0
233 -481 0
234 -481 0
-359 -232 -233 -234 481 0
296 -482 0
233 -482 0
234 -482 0
-296 -233 -234 482 0
297 -483 0
234 -483 0
-297 -234 483 0
359 -484 0
232 -484 0
233 -484 0
234 -484 0
235 -484 0
-359 -232 -233 -234 -235 484 0
296 -485 0
233 -485 0
234 -485 0
235 -485 0
-296 -233 -234 -235 485 0
297 -486 0
234 -486 0
235 -486 0
-297 -234 -235 486 0
298 -487 0
235 -487 0
-298 -235 487 0
-296 360 0
-478 360 0
296 478 -360 0
-297 361 0
-479 361 0
-480 361 0
297 479 480 -361 0
-298 362 0
-481 362 0
-482 362 0
-483 362 0
298 481 482 483 -362 0
-299 363 0
-484 363 0
-485 363 0
-486 363 0
-487 363 0
299 484 485 486 487 -363 0
363 -488 0
236 -488 0
-363 -236 488 0
363 -489 0
236 -489 0
237 -489 0
-363 -236 -237 489 0
300 -490 0
237 -490 0
-300 -237 490 0
363 -491 0
236 -491 0
237 -491 0
238 -491 0
-363 -236 -237 -238 491 0
300 -492 0
237 -492 0
238 -492 0
-300 -237 -238 492 0
301 -493 0
238 -493 0
-301 -238 493 0
363 -494 0
236 -494 0
237 -494 0
238 -494 0
239 -494 0
-363 -236 -237 -238 -239 494 0
300 -495 0
237 -495 0
238 -495 0
239 -495 0
-300 -237 -238 -239 495 0
301 -496 0
238 -496 0
239 -496 0
-301 -238 -239 496 0
302 -497 0
239 -497 0
-302 -239 497 0
-300 364 0
-488 364 0
300 488 -364 0
-301 365 0
-489 365 0
-490 365 0
301 489 490 -365 0
-302 366 0
-491 366 0
-492 366 0
-493 366 0
302 491 492 493 -366 0
-303 367 0
-494 367 0
-495 367 0
-496 367 0
-497 367 0
303 494 495 496 497 -367 0
367 -498 0
240 -498 0
-367 -240 498 0
367 -499 0
240 -499 0
241 -499 0
-367 -240 -241 499 0
304 -500 0
241 -500 0
-304 -241 500 0
367 -501 0
240 -501 0
241 -501 0
242 -501 0
-367 -240 -241 -242 501 0
304 -502 0
241 -502 0
242 -502 0
-304 -241 -242 502 0
305 -503 0
242 -503 0
-305 -242 503 0
367 -504 0
240 -504 0
241 -504 0
242 -504 0
243 -504 0
-367 -240 -241 -242 -243 504 0
304 -505 0
241 -505 0
242 -505 0
243 -505 0
-304 -241 -242 -243 505 0
305 -506 0
242 -506 0
243 -506 0
-305 -242 -243 506 0
306 -507 0
243 -507 0
-306 -243 507 0
-304 368 0
-498 368 0
304 498 -368 0
-305 369 0
-499 369 0
-500 369 0
305 499 500 -369 0
-306 370 0
-501 370 0
-502 370 0
-503 370 0
306 501 502 503 -370 0
-307 371 0
-504 371 0
-505 371 0
-506 371 0
-507 371 0
307 504 505 506 507 -371 0
371 -508 0
244 -508 0
-371 -244 508 0
371 -509 0
244 -509 0
245 -509 0
-371 -244 -245 509 0
308 -510 0
245 -510 0
-308 -245 510 0
371 -511 0
244 -511 0
245 -511 0
246 -511 0
-371 -244 -245 -246 511 0
308 -512 0
245 -512 0
246 -512 0
-308 -245 -246 512 0
309 -513 0
246 -513 0
-309 -246 513 0
371 -514 0
244 -514 0
245 -514 0
246 -514 0
247 -514 0
-371 -244 -245 -246 -247 514 0
308 -515 0
245 -515 0
246 -515 0
247 -515 0
-308 -245 -246 -247 515 0
309 -516 0
246 -516 0
247 -516 0
-309 -246 -247 516 0
310 -517 0
247 -517 0
-310 -247 517 0
-308 372 0
-508 372 0
308 508 -372 0
-309 373 0
-509 373 0
-510 373 0
309 509 510 -373 0
-310 374 0
-511 374 0
-512 374 0
-513 374 0
310 511 512 513 -374 0
-311 375 0
-514 375 0
-515 375 0
-516 375 0
-517 375 0
311 514 515 516 517 -375 0
375 -518 0
248 -518 0
-375 -248 518 0
375 -519 0
248 -519 0
249 -519 0
-375 -248 -249 519 0
312 -520 0
249 -520 0
-312 -249 520 0
375 -521 0
248 -521 0
249 -521 0
250 -521 0
-375 -248 -249 -250 521 0
312 -522 0
249 -522 0
250 -522 0
-312 -249 -250 522 0
313 -523 0
250 -523 0
-313 -250 523 0
375 -524 0
248 -524 0
249 -524 0
250 -524 0
251 -524 0
-375 -248 -249 -250 -251 524 0
312 -525 0
249 -525 0
250 -525 0
251 -525 0
-312 -249 -250 -251 525 0
313 -526 0
250 -526 0
251 -526 0
-313 -250 -251 526 0
314 -527 0
251 -527 0
-314 -251 527 0
-312 376 0
-518 376 0
312 518 -376 0
-313 377 0
-519 377 0
-520 377 0
313 519 520 -377 0
-314 378 0
-521 378 0
-522 378 0
-523 378 0
314 521 522 523 -378 0
-315 379 0
-524 379 0
-525 379 0
-526 379 0
-527 379 0
315 524 525 526 527 -379 0
379 -528 0
252 -528 0
-379 -252 528 0
379 -529 0
252 -529 0
253 -529 0
-379 -252 -253 529 0
316 -530 0
253 -530 0
-316 -253 530 0
379 -531 0
252 -531 0
253 -531 0
254 -531 0
-379 -252 -253 -254 531 0
316 -532 0
253 -532 0
254 -532 0
-316 -253 -254 532 0
317 -533 0
254 -533 0
-317 -254 533 0
379 -534 0
252 -534 0
253 -534 0
254 -534 0
255 -534 0
-379 -252 -253 -254 -255 534 0
316 -535 0
253 -535 0
254 -535 0
255 -535 0
-316 -253 -254 -255 535 0
317 -536 0
254 -536 0
255 -536 0
-317 -254 -255 536 0
318 -537 0
255 -537 0
-318 -255 537 0
-316 380 0
-528 380 0
316 528 -380 0
-317 381 0
-529 381 0
-530 381 0
317 529 530 -381 0
-318 382 0
-531 382 0
-532 382 0
-533 382 0
318 531 532 533 -382 0
-319 383 0
-534 383 0
-535 383 0
-536 383 0
-537 383 0
319 534 535 536 537 -383 0
383 -538 0
256 -538 0
-383 -256 538 0
383 -539 0
256 -539 0
257 -539 0
-383 -256 -257 539 0
320 -540 0
257 -540 0
-320 -257 540 0
383 -541 0
256 -541 0
257 -541 0
258 -541 0
-383 -256 -257 -258 541 0
320 -542 0
257 -542 0
258 -542 0
-320 -257 -258 542 0
321 -543 0
258 -543 0
-321 -258 543 0
383 -544 0
256 -544 0
257 -544 0
258 -544 0
259 -544 0
-383 -256 -257 -258 -259 544 0
320 -545 0
257 -545 0
258 -545 0
259 -545 0
-320 -257 -258 -259 545 0
321 -546 0
258 -546 0
259 -546 0
-321 -258 -259 546 0
322 -547 0
259 -547 0
-322 -259 547 0
-320 384 0
-538 384 0
320 538 -384 0
-321 385 0
-539 385 0
-540 385 0
321 539 540 -385 0
-322 386 0
-541 386 0
-542 386 0
-543 386 0
322 541 542 543 -386 0
-323 387 0
-544 387 0
-545 387 0
-546 387 0
-547 387 0
323 544 545 546 547 -387 0
196 194 -129 0
-196 194 129 0
196 -194 129 0
-196 -194 -129 0
197 324 -130 0
-197 324 130 0
197 -324 130 0
-197 -324 -130 0
198 325 -131 0
-198 325 131 0
198 -325 131 0
-198 -325 -131 0
199 326 -132 0
-199 326 132 0
199 -326 132 0
-199 -326 -132 0
200 327 -133 0
-200 327 133 0
200 -327 133 0
-200 -327 -133 0
201 328 -134 0
-201 328 134 0
201 -328 134 0
-201 -328 -134 0
202 329 -135 0
-202 329 135 0
202 -329 135 0
-202 -329 -135 0
203 330 -136 0
-203 330 136 0
203 -330 136 0
-203 -330 -136 0
204 331 -137 0
-204 331 137 0
204 -331 137 0
-204 -331 -137 0
205 332 -138 0
-205 332 138 0
205 -332 138 0
-205 -332 -138 0
206 333 -139 0
-206 333 139 0
206 -333 139 0
-206 -333 -139 0
207 334 -140 0
-207 334 140 0
207 -334 140 0
-207 -334 -140 0
208 335 -141 0
-208 335 141 0
208 -335 141 0
-208 -335 -141 0
209 336 -142 0
-209 336 142 0
209 -336 142 0
-209 -336 -142 0
210 337 -143 0
-210 337 143 0
210 -337 143 0
-210 -337 -143 0
211 338 -144 0
-211 338 144 0
211 -338 144 0
-211 -338 -144 0
212 339 -145 0
-212 339 145 0
212 -339 145 0
-212 -339 -145 0
213 340 -146 0
-213 340 146 0
213 -340 146 0
-213 -340 -146 0
214 341 -147 0
-214 341 147 0
214 -341 147 0
-214 -341 -147 0
215 342 -148 0
-215 342 148 0
215 -342 148 0
-215 -342 -148 0
216 343 -149 0
-216 343 149 0
216 -343 149 0
-216 -343 -149 0
217 344 -150 0
-217 344 150 0
217 -344 150 0
-217 -344 -150 0
218 345 -151 0
-218 345 151 0
218 -345 151 0
-218 -345 -151 0
219 346 -152 0
-219 346 152 0
219 -346 152 0
-219 -346 -152 0
220 347 -153 0
-220 347 153 0
220 -347 153 0
-220 -347 -153 0
221 348 -154 0
-221 348 154 0
221 -348 154 0
-221 -348 -154 0
222 349 -155 0
-222 349 155 0
222 -349 155 0
-222 -349 -155 0
223 350 -156 0
-223 350 156 0
223 -350 156 0
-223 -350 -156 0
224 351 -157 0
-224 351 157 0
224 -351 157 0
-224 -351 -157 0
225 352 -158 0
-225 352 158 0
225 -352 158 0
-225 -352 -158 0
226 353 -159 0
-226 353 159 0
226 -353 159 0
-226 -353 -159 0
227 354 -160 0
-227 354 160 0
227 -354 160 0
-227 -354 -160 0
228 355 -161 0
-228 355 161 0
228 -355 161 0
-228 -355 -161 0
229 356 -162 0
-229 356 162 0
229 -356 162 0
-229 -356 -162 0
230 357 -163 0
-230 357 163 0
230 -357 163 0
-230 -357 -163 0
231 358 -164 0
-231 358 164 0
231 -358 164 0
-231 -358 -164 0
232 359 -165 0
-232 359 165 0
232 -359 165 0
-232 -359 -165 0
233 360 -166 0
-233 360 166 0
233 -360 166 0
-233 -360 -166 0
234 361 -167 0
-234 361 167 0
234 -361 167 0
-234 -361 -167 0
235 362 -168 0
-235 362 168 0
235 -362 168 0
-235 -362 -168 0
236 363 -169 0
-236 363 169 0
236 -363 169 0
-236 -363 -169 0
237 364 -170 0
-237 364 170 0
237 -364 170 0
-237 -364 -170 0
238 365 -171 0
-238 365 171 0
238 -365 171 0
-238 -365 -171 0
239 366 -172 0
-239 366 172 0
239 -366 172 0
-239 -366 -172 0
240 367 -173 0
-240 367 173 0
240 -367 173 0
-240 -367 -173 0
241 368 -174 0
-241 368 174 0
241 -368 174 0
-241 -368 -174 0
242 369 -175 0
-242 369 175 0
242 -369 175 0
-242 -369 -175 0
243 370 -176 0
-243 370 176 0
243 -370 176 0
-243 -370 -176 0
244 371 -177 0
-244 371 177 0
244 -371 177 0
-244 -371 -177 0
245 372 -178 0
-245 372 178 0
245 -372 178 0
-245 -372 -178 0
246 373 -179 0
-246 373 179 0
246 -373 179 0
-246 -373 -179 0
247 374 -180 0
-247 374 180 0
247 -374 180 0
-247 -374 -180 0
248 375 -181 0
-248 375 181 0
248 -375 181 0
-248 -375 -181 0
249 376 -182 0
-249 376 182 0
249 -376 182 0
-249 -376 -182 0
250 377 -183 0
-250 377 183 0
250 -377 183 0
-250 -377 -183 0
251 378 -184 0
-251 378 184 0
251 -378 184 0
-251 -378 -184 0
252 379 -185 0
-252 379 185 0
252 -379 185 0
-252 -379 -185 0
253 380 -186 0
-253 380 186 0
253 -380 186 0
-253 -380 -186 0
254 381 -187 0
-254 381 187 0
254 -381 187 0
-254 -381 -187 0
255 382 -188 0
-255 382 188 0
255 -382 188 0
-255 -382 -188 0
256 383 -189 0
-256 383 189 0
256 -383 189 0
-256 -383 -189 0
257 384 -190 0
-257 384 190 0
257 -384 190 0
-257 -384 -190 0
258 385 -191 0
-258 385 191 0
258 -385 191 0
-258 -385 -191 0
259 386 -192 0
-259 386 192 0
259 -386 192 0
-259 -386 -192 0
387 -193 0
-387 193 0
